p wcnf 4000 400 1
1 1 0
1 2 0
1 3 0
1 4 0
1 5 0
1 6 0
1 7 0
1 8 0
1 9 0
1 10 0
1 11 0
1 12 0
1 13 0
1 14 0
1 15 0
1 1 1 1 1 1 1 1 1 1 1 1 1 1 1 0
1 1 1 1 1 1 1 1 1 1 1 1 1 1 1 0
1 2 2 2 2 2 2 2 2 2 2 2 2 2 2 0
1 2 2 2 2 2 2 2 2 2 2 2 2 2 2 0
1 2 2 2 2 2 2 2 2 3 3 3 3 3 3 0
1 3 3 3 3 3 3 3 3 3 3 3 3 3 3 0
1 3 3 3 3 3 3 3 3 3 3 3 3 3 3 0
1 3 4 4 4 4 4 4 4 4 4 4 4 4 4 0
1 4 4 4 4 4 4 4 4 4 4 4 4 4 4 0
1 4 4 4 4 4 4 4 4 4 5 5 5 5 5 0
1 5 5 5 5 5 5 5 5 5 5 5 5 5 5 0
1 5 5 5 5 5 5 5 5 5 5 5 5 5 5 0
1 5 6 6 6 6 6 6 6 6 6 6 6 6 6 0
1 6 6 6 6 6 6 6 6 6 6 6 6 6 6 0
1 6 6 6 6 6 6 6 6 6 6 6 6 6 6 0
1 6 6 6 7 7 7 7 7 7 7 7 7 7 7 0
1 7 7 7 7 7 7 7 7 7 7 7 7 7 7 0
1 7 7 7 7 7 7 7 7 7 8 8 8 8 8 0
1 8 8 8 8 8 8 8 8 8 8 8 8 8 8 0
1 8 8 8 8 8 8 8 8 8 8 8 8 8 8 0
1 8 8 8 8 8 8 8 8 8 8 9 9 9 9 0
1 9 9 9 9 9 9 9 9 9 9 9 9 9 9 0
1 9 9 9 9 9 9 9 9 9 10 10 10 10 10 0
1 10 10 10 10 10 10 10 10 10 10 10 10 10 10 0
1 10 10 10 10 10 10 10 10 10 10 10 10 10 10 0
1 10 10 10 10 10 10 10 10 10 10 10 11 11 11 0
1 11 11 11 11 11 11 11 11 11 11 11 11 11 11 0
1 11 11 11 11 11 11 11 11 11 11 11 11 11 11 0
1 11 11 11 11 11 11 11 12 12 12 12 12 12 12 0
1 12 12 12 12 12 12 12 12 12 12 12 12 12 12 0
1 12 12 12 12 12 12 12 12 12 12 12 12 12 13 0
1 13 13 13 13 13 13 13 13 13 13 13 13 13 13 0
1 13 13 13 13 13 13 13 13 13 13 13 13 13 13 0
1 13 13 13 13 13 13 13 13 13 13 13 14 14 14 0
1 14 14 14 14 14 14 14 14 14 14 14 14 14 14 0
1 14 14 14 14 14 14 14 14 14 14 14 14 14 14 0
1 14 14 14 14 14 14 14 14 14 14 14 14 14 14 0
1 14 14 14 14 14 15 15 15 15 15 15 15 15 15 0
1 15 15 15 15 15 15 15 15 15 15 15 15 15 15 0
1 15 15 15 15 15 15 15 15 15 15 15 15 15 15 0
1 15 15 15 15 15 16 16 16 16 16 16 16 16 16 0
1 16 16 16 16 16 16 16 16 16 16 16 16 16 16 0
1 16 16 16 16 16 16 16 16 16 16 16 16 16 16 0
1 16 17 17 17 17 17 17 17 17 17 17 17 17 17 0
1 17 17 17 17 17 17 17 17 17 17 17 17 17 17 0
1 17 17 17 17 17 17 17 17 17 17 17 17 17 17 0
1 17 17 17 18 18 18 18 18 18 18 18 18 18 18 0
1 18 18 18 18 18 18 18 18 18 18 18 18 18 18 0
1 18 18 18 18 18 18 19 19 19 19 19 19 19 19 0
1 19 19 19 19 19 19 19 19 19 19 19 19 19 19 0
1 19 19 19 19 19 19 19 19 19 19 19 19 19 19 0
1 20 20 20 20 20 20 20 20 20 20 20 20 20 20 0
1 20 20 20 20 20 20 20 20 20 20 20 20 20 20 0
1 20 20 20 20 20 20 20 20 20 20 20 20 20 21 0
1 21 21 21 21 21 21 21 21 21 21 21 21 21 21 0
1 21 21 21 21 21 21 21 21 21 21 21 21 21 21 0
1 21 21 21 21 21 21 22 22 22 22 22 22 22 22 0
1 22 22 22 22 22 22 22 22 22 22 22 22 22 22 0
1 22 22 22 22 22 22 22 22 22 22 22 22 23 23 0
1 23 23 23 23 23 23 23 23 23 23 23 23 23 23 0
1 23 23 23 23 23 23 23 23 23 23 23 23 23 23 0
1 23 23 23 23 23 23 23 24 24 24 24 24 24 24 0
1 24 24 24 24 24 24 24 24 24 24 24 24 24 24 0
1 24 24 24 24 24 24 24 24 24 24 24 24 24 24 0
1 25 25 25 25 25 25 25 25 25 25 25 25 25 25 0
1 25 25 25 25 25 25 25 25 25 25 25 25 25 25 0
1 25 25 25 25 25 25 25 25 25 25 25 25 25 25 0
1 25 25 25 25 25 25 25 25 25 26 26 26 26 26 0
1 26 26 26 26 26 26 26 26 26 26 26 26 26 26 0
1 26 26 26 26 26 26 26 26 26 26 27 27 27 27 0
1 27 27 27 27 27 27 27 27 27 27 27 27 27 27 0
1 27 27 27 27 27 27 27 27 27 27 27 27 27 27 0
1 27 27 27 27 27 27 27 27 27 27 28 28 28 28 0
1 28 28 28 28 28 28 28 28 28 28 28 28 28 28 0
1 28 28 28 28 28 28 28 28 28 28 28 28 28 28 0
1 28 28 28 28 28 28 28 28 28 28 28 28 28 28 0
1 28 28 29 29 29 29 29 29 29 29 29 29 29 29 0
1 29 29 29 29 29 29 29 29 29 29 29 29 29 29 0
1 29 29 29 29 29 29 29 29 29 29 29 29 29 29 0
1 29 29 30 30 30 30 30 30 30 30 30 30 30 30 0
1 30 30 30 30 30 30 30 30 30 30 30 30 30 30 0
1 30 30 30 30 30 31 31 31 31 31 31 31 31 31 0
1 31 31 31 31 31 31 31 31 31 31 31 31 31 31 0
1 31 31 31 31 31 31 31 31 31 31 31 31 31 31 0
1 31 31 32 32 32 32 32 32 32 32 32 32 32 32 0
1 32 32 32 32 32 32 32 32 32 32 32 32 32 32 0
1 32 32 32 32 32 32 32 32 33 33 33 33 33 33 0
1 33 33 33 33 33 33 33 33 33 33 33 33 33 33 0
1 33 33 33 33 33 33 33 33 33 33 33 33 34 34 0
1 34 34 34 34 34 34 34 34 34 34 34 34 34 34 0
1 34 34 34 34 34 34 34 34 34 34 34 34 34 34 0
1 34 34 34 34 34 34 34 34 34 34 34 35 35 35 0
1 35 35 35 35 35 35 35 35 35 35 35 35 35 35 0
1 35 35 35 35 35 35 35 35 35 35 35 35 35 35 0
1 35 35 35 35 35 35 36 36 36 36 36 36 36 36 0
1 36 36 36 36 36 36 36 36 36 36 36 36 36 36 0
1 36 36 36 36 36 36 36 36 36 36 36 36 36 36 0
1 36 36 36 36 36 36 36 36 36 36 37 37 37 37 0
1 37 37 37 37 37 37 37 37 37 37 37 37 37 37 0
1 37 37 37 37 37 37 37 37 37 37 37 37 37 37 0
1 37 38 38 38 38 38 38 38 38 38 38 38 38 38 0
1 38 38 38 38 38 38 38 38 38 38 38 38 38 38 0
1 38 38 39 39 39 39 39 39 39 39 39 39 39 39 0
1 39 39 39 39 39 39 39 39 39 39 39 39 39 39 0
1 39 39 39 39 39 39 39 39 39 39 39 39 40 40 0
1 40 40 40 40 40 40 40 40 40 40 40 40 40 40 0
1 40 40 40 40 40 40 40 40 40 40 40 40 40 40 0
1 40 40 40 40 40 40 40 41 41 41 41 41 41 41 0
1 41 41 41 41 41 41 41 41 41 41 41 41 41 41 0
1 41 41 41 41 41 41 41 41 41 41 42 42 42 42 0
1 42 42 42 42 42 42 42 42 42 42 42 42 42 42 0
1 42 42 42 42 42 42 42 42 42 42 42 42 42 42 0
1 42 42 42 42 42 42 42 42 42 42 42 42 42 42 0
1 42 42 42 43 43 43 43 43 43 43 43 43 43 43 0
1 43 43 43 43 43 43 43 43 43 43 43 43 43 43 0
1 43 43 43 43 43 43 43 43 43 43 43 44 44 44 0
1 44 44 44 44 44 44 44 44 44 44 44 44 44 44 0
1 44 44 44 44 44 44 44 44 44 44 44 44 44 44 0
1 44 44 44 44 44 44 44 44 44 44 44 44 44 44 0
1 44 44 45 45 45 45 45 45 45 45 45 45 45 45 0
1 45 45 45 45 45 45 45 45 45 45 45 45 45 45 0
1 45 45 45 45 45 45 45 45 45 45 45 45 46 46 0
1 46 46 46 46 46 46 46 46 46 46 46 46 46 46 0
1 46 46 46 46 46 46 46 46 46 46 46 46 46 46 0
1 46 47 47 47 47 47 47 47 47 47 47 47 47 47 0
1 47 47 47 47 47 47 47 47 47 47 47 47 47 47 0
1 47 47 47 47 47 47 47 47 47 47 47 47 47 47 0
1 47 47 47 47 47 48 48 48 48 48 48 48 48 48 0
1 48 48 48 48 48 48 48 48 48 48 48 48 48 48 0
1 48 48 48 48 48 48 48 48 48 48 48 48 48 48 0
1 48 48 48 48 48 48 48 48 49 49 49 49 49 49 0
1 49 49 49 49 49 49 49 49 49 49 49 49 49 49 0
1 49 49 49 49 49 49 49 49 49 49 49 49 49 49 0
1 49 49 49 49 49 49 49 49 49 49 49 49 49 49 0
1 50 50 50 50 50 50 50 50 50 50 50 50 50 50 0
1 50 50 50 50 50 50 50 50 50 50 50 50 50 50 0
1 50 50 50 50 50 50 50 50 50 51 51 51 51 51 0
1 51 51 51 51 51 51 51 51 51 51 51 51 51 51 0
1 51 51 51 51 51 51 51 51 51 51 51 51 51 51 0
1 51 52 52 52 52 52 52 52 52 52 52 52 52 52 0
1 52 52 52 52 52 52 52 52 52 52 52 52 52 52 0
1 52 52 52 52 53 53 53 53 53 53 53 53 53 53 0
1 53 53 53 53 53 53 53 53 53 53 53 53 53 53 0
1 53 53 53 53 53 53 53 53 53 53 53 53 53 53 0
1 54 54 54 54 54 54 54 54 54 54 54 54 54 54 0
1 54 54 54 54 54 54 54 54 54 54 54 54 54 54 0
1 54 54 54 54 54 54 54 54 54 54 54 54 54 54 0
1 54 55 55 55 55 55 55 55 55 55 55 55 55 55 0
1 55 55 55 55 55 55 55 55 55 55 55 55 55 55 0
1 55 55 55 55 55 55 55 55 55 55 55 55 55 55 0
1 55 55 55 55 55 55 56 56 56 56 56 56 56 56 0
1 56 56 56 56 56 56 56 56 56 56 56 56 56 56 0
1 56 56 56 56 56 56 56 56 56 56 56 56 56 56 0
1 56 56 56 56 57 57 57 57 57 57 57 57 57 57 0
1 57 57 57 57 57 57 57 57 57 57 57 57 57 57 0
1 57 57 57 57 57 57 57 57 57 57 58 58 58 58 0
1 58 58 58 58 58 58 58 58 58 58 58 58 58 58 0
1 58 58 58 58 58 58 58 58 58 58 58 58 58 59 0
1 59 59 59 59 59 59 59 59 59 59 59 59 59 59 0
1 59 59 59 59 59 59 59 59 59 59 59 59 59 59 0
1 59 59 59 60 60 60 60 60 60 60 60 60 60 60 0
1 60 60 60 60 60 60 60 60 60 60 60 60 60 60 0
1 60 60 60 60 60 60 60 60 60 60 60 61 61 61 0
1 61 61 61 61 61 61 61 61 61 61 61 61 61 61 0
1 61 61 61 61 61 61 61 61 61 61 61 61 61 61 0
1 61 61 61 61 61 61 62 62 62 62 62 62 62 62 0
1 62 62 62 62 62 62 62 62 62 62 62 62 62 62 0
1 62 62 62 62 62 62 62 62 62 62 62 62 62 62 0
1 63 63 63 63 63 63 63 63 63 63 63 63 63 63 0
1 63 63 63 63 63 63 63 63 63 63 63 63 63 63 0
1 63 63 63 63 63 64 64 64 64 64 64 64 64 64 0
1 64 64 64 64 64 64 64 64 64 64 64 64 64 64 0
1 64 64 64 64 64 64 64 64 64 64 64 64 64 64 0
1 64 64 64 64 64 64 65 65 65 65 65 65 65 65 0
1 65 65 65 65 65 65 65 65 65 65 65 65 65 65 0
1 65 65 65 65 65 65 65 65 65 65 66 66 66 66 0
1 66 66 66 66 66 66 66 66 66 66 66 66 66 66 0
1 66 66 66 66 66 66 66 66 66 66 66 66 66 66 0
1 66 66 66 66 66 67 67 67 67 67 67 67 67 67 0
1 67 67 67 67 67 67 67 67 67 67 67 67 67 67 0
1 67 67 67 67 67 67 67 67 67 67 67 67 67 67 0
1 67 67 67 68 68 68 68 68 68 68 68 68 68 68 0
1 68 68 68 68 68 68 68 68 68 68 68 68 68 68 0
1 68 68 68 68 68 68 68 68 68 68 68 69 69 69 0
1 69 69 69 69 69 69 69 69 69 69 69 69 69 69 0
1 69 69 69 69 69 69 69 69 69 69 69 69 69 70 0
1 70 70 70 70 70 70 70 70 70 70 70 70 70 70 0
1 70 70 70 70 70 70 70 70 70 70 70 70 70 70 0
1 70 70 70 70 70 70 70 70 70 70 70 70 71 71 0
1 71 71 71 71 71 71 71 71 71 71 71 71 71 71 0
1 71 71 71 71 71 71 71 71 71 71 71 71 71 71 0
1 71 71 72 72 72 72 72 72 72 72 72 72 72 72 0
1 72 72 72 72 72 72 72 72 72 72 72 72 72 72 0
1 72 72 72 72 72 72 72 72 72 72 72 72 73 73 0
1 73 73 73 73 73 73 73 73 73 73 73 73 73 73 0
1 73 73 73 73 73 73 73 73 73 73 73 73 73 73 0
1 74 74 74 74 74 74 74 74 74 74 74 74 74 74 0
1 74 74 74 74 74 74 74 74 74 74 74 74 74 74 0
1 74 74 74 74 74 74 74 75 75 75 75 75 75 75 0
1 75 75 75 75 75 75 75 75 75 75 75 75 75 75 0
1 75 75 75 75 75 75 75 75 75 75 75 75 75 75 0
1 75 75 75 75 75 75 75 75 76 76 76 76 76 76 0
1 76 76 76 76 76 76 76 76 76 76 76 76 76 76 0
1 76 76 76 76 76 76 76 76 76 76 76 76 76 76 0
1 76 77 77 77 77 77 77 77 77 77 77 77 77 77 0
1 77 77 77 77 77 77 77 77 77 77 77 77 77 77 0
1 77 77 77 77 78 78 78 78 78 78 78 78 78 78 0
1 78 78 78 78 78 78 78 78 78 78 78 78 78 78 0
1 78 78 78 78 78 78 78 78 78 78 78 79 79 79 0
1 79 79 79 79 79 79 79 79 79 79 79 79 79 79 0
1 79 79 79 79 79 79 79 79 79 79 79 79 79 79 0
1 79 79 79 80 80 80 80 80 80 80 80 80 80 80 0
1 80 80 80 80 80 80 80 80 80 80 80 80 80 80 0
1 80 80 80 80 80 80 80 80 80 80 80 81 81 81 0
1 81 81 81 81 81 81 81 81 81 81 81 81 81 81 0
1 81 81 81 81 81 81 81 81 81 81 81 81 81 81 0
1 81 81 81 81 82 82 82 82 82 82 82 82 82 82 0
1 82 82 82 82 82 82 82 82 82 82 82 82 82 82 0
1 82 82 82 82 82 82 82 82 82 82 82 82 83 83 0
1 83 83 83 83 83 83 83 83 83 83 83 83 83 83 0
1 83 83 83 83 83 83 83 83 83 83 84 84 84 84 0
1 84 84 84 84 84 84 84 84 84 84 84 84 84 84 0
1 84 84 84 84 84 84 84 84 84 84 84 84 84 84 0
1 84 84 84 84 84 84 84 84 84 85 85 85 85 85 0
1 85 85 85 85 85 85 85 85 85 85 85 85 85 85 0
1 85 85 85 85 85 85 85 85 85 85 85 85 85 85 0
1 85 85 85 85 85 85 85 85 86 86 86 86 86 86 0
1 86 86 86 86 86 86 86 86 86 86 86 86 86 86 0
1 86 86 86 86 86 86 86 86 86 86 86 86 86 86 0
1 86 86 86 87 87 87 87 87 87 87 87 87 87 87 0
1 87 87 87 87 87 87 87 87 87 87 87 87 87 87 0
1 87 87 87 87 87 87 88 88 88 88 88 88 88 88 0
1 88 88 88 88 88 88 88 88 88 88 88 88 88 88 0
1 88 88 88 88 88 88 88 88 88 88 88 88 88 89 0
1 89 89 89 89 89 89 89 89 89 89 89 89 89 89 0
1 89 89 89 89 89 89 89 89 89 89 89 89 89 89 0
1 89 89 89 89 89 89 89 89 90 90 90 90 90 90 0
1 90 90 90 90 90 90 90 90 90 90 90 90 90 90 0
1 90 90 90 90 90 90 90 90 90 90 90 90 90 90 0
1 91 91 91 91 91 91 91 91 91 91 91 91 91 91 0
1 91 91 91 91 91 91 91 91 91 91 91 91 91 91 0
1 91 91 91 91 91 91 91 91 91 91 91 91 91 92 0
1 92 92 92 92 92 92 92 92 92 92 92 92 92 92 0
1 92 92 92 92 92 92 92 92 92 92 92 92 92 92 0
1 92 92 92 92 92 92 93 93 93 93 93 93 93 93 0
1 93 93 93 93 93 93 93 93 93 93 93 93 93 93 0
1 93 93 93 93 93 93 93 93 93 93 93 93 93 94 0
1 94 94 94 94 94 94 94 94 94 94 94 94 94 94 0
1 94 94 94 94 94 94 94 94 94 94 94 94 94 94 0
1 94 94 94 94 94 94 95 95 95 95 95 95 95 95 0
1 95 95 95 95 95 95 95 95 95 95 95 95 95 95 0
1 95 95 95 95 95 95 95 95 95 95 95 95 96 96 0
1 96 96 96 96 96 96 96 96 96 96 96 96 96 96 0
1 96 96 96 96 96 96 96 96 96 96 96 96 96 96 0
1 96 96 96 96 96 97 97 97 97 97 97 97 97 97 0
1 97 97 97 97 97 97 97 97 97 97 97 97 97 97 0
1 97 97 97 97 97 97 97 97 97 97 97 97 97 97 0
1 98 98 98 98 98 98 98 98 98 98 98 98 98 98 0
1 98 98 98 98 98 98 98 98 98 98 98 98 98 98 0
1 98 98 98 98 98 99 99 99 99 99 99 99 99 99 0
1 99 99 99 99 99 99 99 99 99 99 99 99 99 99 0
1 99 99 99 99 99 99 99 99 99 99 99 99 99 99 0
1 99 99 99 99 99 100 100 100 100 100 100 100 100 100 0
1 100 100 100 100 100 100 100 100 100 100 100 100 100 100 0
1 100 100 100 100 100 100 100 100 100 100 100 100 100 100 0
1 100 100 100 100 100 100 100 100 100 0
1  0
1 177 301 359 361 392 416 623 712 777 811 844 903 942 945 0
1 1121 1163 1169 1242 1298 1317 1323 1342 1439 1448 1510 1529 1757 1781 0
1 1825 1979 1990 2003 2088 2327 2365 2387 2396 2435 2550 2607 2783 2805 0
1 3170 3187 3346 3457 3493 3498 3525 3550 3551 3572 3706 3711 3737 3738 0
1 3794 3866 3892 3995 0
1  0
1 50 52 94 146 192 229 237 309 342 457 498 656 742 761 0
1 866 1224 1281 1283 1295 1318 1345 1380 1441 1442 1516 1555 1583 1654 0
1 1685 1919 1989 2062 2079 2090 2114 2127 2137 2148 2160 2197 2298 2331 0
1 2552 2600 2786 2797 2820 2832 2889 2937 2994 3004 3044 3140 3148 3187 0
1 3288 3333 3368 3420 3427 3440 3576 3650 3745 3766 3849 0
1  0
1 333 369 492 498 510 595 623 633 643 693 731 748 756 815 0
1 931 948 1013 1115 1122 1124 1208 1213 1224 1370 1448 1505 1518 1566 0
1 1659 1675 1706 1743 1775 1884 1934 1992 2072 2073 2118 2218 2295 2304 0
1 2406 2435 2460 2507 2556 2562 2579 2693 2697 2701 2727 2747 2794 2809 0
1 3076 3079 3092 3240 3259 3328 3363 3484 3526 3622 3626 3727 3840 3867 0
1 3932 0
1  0
1 46 98 102 112 116 171 180 200 241 332 386 446 549 569 0
1 750 853 880 884 908 912 950 989 1036 1069 1120 1145 1237 1254 0
1 1421 1431 1433 1509 1522 1556 1593 1662 1704 1739 1828 1906 1991 2039 0
1 2231 2268 2286 2318 2382 2398 2432 2461 2682 2745 2961 2993 3075 3086 0
1 3210 3313 3319 3339 3371 3378 3380 3415 3445 3566 3593 3626 3682 3689 0
1 3773 3850 3872 3926 0
1  0
1 12 64 71 228 293 360 369 381 410 468 529 531 534 562 0
1 597 743 882 934 1011 1077 1134 1140 1147 1165 1279 1286 1291 1314 0
1 1393 1398 1402 1403 1433 1446 1460 1481 1526 1536 1625 1638 1639 1761 0
1 1782 1789 1827 1972 2003 2030 2083 2096 2100 2104 2138 2425 2502 2514 0
1 2761 2850 2895 2956 2987 3054 3149 3178 3379 3592 3610 3673 3723 3758 0
1 3842 3850 3871 3884 3952 0
1  0
1 97 128 167 207 342 359 362 367 456 474 522 532 574 698 0
1 773 787 799 849 1018 1037 1042 1092 1100 1107 1115 1128 1256 1328 0
1 1409 1577 1672 1677 1769 1782 1817 1916 1920 1943 1954 2005 2047 2137 0
1 2459 2498 2513 2553 2631 2695 2744 2768 2784 2883 2941 3004 3038 3048 0
1 3130 3144 3164 3208 3210 3262 3266 3343 3381 3418 3459 3488 3515 3539 0
1 3658 3693 3694 3727 3759 3779 3835 0
1  0
1 51 55 208 220 244 276 313 337 485 565 584 643 744 750 0
1 839 841 850 910 943 1014 1030 1051 1070 1096 1219 1246 1312 1335 0
1 1436 1522 1785 1845 1852 1921 1967 1979 2041 2201 2281 2291 2355 2397 0
1 2481 2501 2503 2536 2608 2660 2708 2715 2728 2765 2816 2961 2992 3075 0
1 3280 3304 3342 3492 3528 3753 3762 3834 3908 3910 3912 3915 3956 3975 0
1  0
1  0
1 65 86 134 373 412 439 474 477 570 583 590 690 705 752 0
1 786 819 850 941 1015 1021 1142 1222 1272 1284 1290 1300 1354 1361 0
1 1484 1490 1522 1536 1551 1582 1584 1613 1614 1699 1744 1755 1888 1891 0
1 1937 2034 2231 2249 2269 2325 2358 2405 2418 2516 2543 2564 2584 2633 0
1 2643 2693 2698 2741 2778 2818 2933 2946 2984 3033 3059 3086 3096 3113 0
1 3328 3338 3406 3424 3515 3535 3602 3620 3623 3720 3771 3845 3963 3967 0
1  0
1 14 57 65 106 109 230 266 283 300 333 391 447 480 508 0
1 827 842 855 892 1016 1043 1095 1161 1240 1261 1285 1302 1323 1337 0
1 1560 1575 1595 1619 1755 1868 1885 1902 1950 2066 2101 2170 2184 2189 0
1 2248 2348 2417 2420 2499 2500 2509 2541 2576 2631 2680 2682 2710 2747 0
1 2862 3028 3045 3132 3153 3164 3173 3280 3610 3651 3665 3697 3722 3729 0
1 3858 3935 3986 0
1  0
1 49 124 162 182 208 218 301 360 414 474 553 579 643 684 0
1 714 744 751 802 806 830 842 883 952 1031 1063 1204 1232 1247 0
1 1287 1295 1360 1447 1521 1522 1556 1631 1704 1738 1767 1819 1839 1850 0
1 1972 2010 2028 2049 2071 2107 2124 2205 2227 2264 2265 2266 2267 2361 0
1 2567 2625 2678 2700 2701 2770 2864 3012 3093 3162 3175 3223 3260 3279 0
1 3301 3331 3436 3438 3455 3457 3607 3633 3671 3673 3795 3879 3914 3978 0
1  0
1  0
1 144 206 208 264 266 333 481 550 630 635 641 713 721 748 0
1 869 901 929 971 1162 1196 1259 1316 1500 1529 1530 1664 1694 1697 0
1 1756 1825 1844 1846 1847 1857 1908 1955 1982 1991 2119 2146 2164 2409 0
1 2575 2607 2628 2664 2667 2681 2740 2773 2817 2833 2853 2897 2912 2924 0
1 3005 3006 3023 3041 3151 3269 3328 3373 3428 3458 3501 3505 3511 3571 0
1 3675 3678 3687 3697 3714 3925 0
1  0
1 78 98 113 129 130 164 316 337 359 382 482 497 594 643 0
1 910 927 936 942 980 1028 1113 1134 1148 1165 1182 1254 1264 1266 0
1 1466 1618 1630 1693 1747 2028 2041 2087 2120 2132 2136 2179 2228 2280 0
1 2543 2563 2594 2596 2622 2645 2695 2750 2798 2869 2957 2967 2996 3006 0
1 3086 3104 3142 3164 3225 3277 3279 3381 3391 3448 3452 3464 3504 3525 0
1 3572 3619 3764 3869 3885 3917 3921 3942 3955 0
1  0
1 200 235 291 393 421 432 475 481 561 570 577 600 667 692 0
1 750 766 793 835 903 946 1033 1129 1162 1176 1215 1294 1368 1380 0
1 1449 1479 1582 1597 1695 1725 1871 1931 1977 2040 2082 2163 2423 2485 0
1 2737 2809 2852 3071 3101 3113 3139 3150 3152 3501 3541 3581 3603 3646 0
1 3829 3859 3904 3964 0
1  0
1 131 149 248 254 300 302 385 460 527 578 586 786 821 828 0
1 847 993 1066 1119 1186 1207 1220 1315 1322 1328 1352 1403 1404 1414 0
1 1558 1571 1572 1669 1684 1701 1753 1779 1812 1846 1847 1875 1878 1886 0
1 1930 1988 2015 2104 2238 2240 2438 2460 2720 2735 2766 2767 2773 2821 0
1 2946 2971 3263 3282 3300 3309 3327 3366 3560 3594 3615 3619 3853 3883 0
1 3962 3979 3996 0
1  0
1 16 21 102 114 212 283 297 321 346 444 445 488 727 846 0
1 930 953 962 1001 1048 1061 1095 1142 1180 1185 1245 1287 1434 1534 0
1 1555 1578 1589 1687 1724 1741 1773 1857 2006 2021 2137 2138 2203 2256 0
1 2301 2322 2421 2540 2620 2639 2658 2665 2685 2717 2817 2826 2838 2930 0
1 3018 3100 3117 3136 3193 3200 3255 3287 3288 3343 3373 3380 3389 3425 0
1 3570 3607 3737 3782 3789 3849 3852 3913 3922 3934 0
1  0
1 43 87 132 185 213 219 298 332 364 577 631 652 716 728 0
1 736 737 835 899 1149 1170 1209 1251 1315 1360 1387 1438 1442 1605 0
1 1648 1663 1682 1690 1731 1762 1765 1783 1851 2007 2050 2069 2104 2204 0
1 2337 2414 2442 2444 2655 2662 2691 2698 2704 2816 2901 2917 2957 3004 0
1 3079 3083 3133 3184 3282 3368 3372 3431 3445 3469 3513 3633 3635 3641 0
1 3770 3921 3962 0
1  0
1 211 255 264 287 294 338 385 452 467 540 627 826 842 923 0
1 1114 1118 1183 1204 1222 1266 1282 1294 1327 1349 1463 1476 1523 1542 0
1 1697 1767 1893 1944 2005 2007 2034 2041 2099 2138 2141 2159 2207 2224 0
1 2318 2327 2460 2536 2554 2580 2610 2701 2750 2757 2890 2942 2946 2964 0
1 3069 3095 3122 3130 3136 3162 3250 3426 3435 3489 3490 3520 3550 3559 0
1 3611 3646 3679 3957 3989 0
1  0
1 133 232 300 455 521 543 579 583 830 846 904 942 1077 1110 0
1 1156 1169 1192 1227 1233 1244 1262 1280 1293 1327 1349 1397 1416 1478 0
1 1581 1729 1745 1750 1777 1888 1963 1966 1967 2006 2029 2066 2071 2129 0
1 2237 2255 2273 2334 2464 2493 2496 2528 2548 2823 2856 2903 3041 3095 0
1 3233 3284 3303 3394 3449 3491 3531 3546 3547 3639 3652 3672 3683 3689 0
1 3814 3834 3864 3924 3957 3969 0
1  0
1 19 33 73 296 365 371 380 420 464 506 529 551 553 554 0
1 584 665 744 782 786 816 910 914 918 946 950 1042 1072 1171 0
1 1363 1373 1437 1438 1553 1635 1645 1769 1779 1846 1866 1903 1912 2057 0
1 2259 2309 2327 2332 2356 2366 2386 2396 2411 2475 2516 2524 2545 2658 0
1 2743 2752 2787 2830 2852 2870 2999 3040 3083 3198 3203 3222 3272 3274 0
1 3383 3455 3613 3677 3685 3740 3816 3817 3926 3927 3943 3959 0
1  0
1 23 60 95 120 175 201 234 265 327 345 407 611 636 713 0
1 1038 1045 1059 1074 1116 1143 1239 1253 1393 1398 1404 1421 1519 1552 0
